(set-info :source |printed by MathSAT|)
(declare-fun call_firefly.ite30 () Int)
(declare-fun env () Bool)
(declare-fun param_e4 () Bool)
(declare-fun call_excludes8.excludes () Bool)
(declare-fun call_firefly.ite40 () Int)
(declare-fun call_firefly.ite14 () Int)
(declare-fun call_firefly.ite15 () Int)
(declare-fun call_firefly.flby5 () Int)
(declare-fun param_e1 () Bool)
(declare-fun param_e2 () Bool)
(declare-fun param_e7 () Bool)
(declare-fun param_i_invalid () Int)
(declare-fun call_firefly.ite16 () Int)
(declare-fun param_e6 () Bool)
(declare-fun call_firefly.garde3 () Bool)
(declare-fun call_firefly.ite10 () Int)
(declare-fun call_firefly.ite5 () Int)
(declare-fun call_firefly.ite4 () Int)
(declare-fun call_firefly.ite31 () Int)
(declare-fun invalid () Int)
(declare-fun call_firefly.ite3 () Int)
(declare-fun call_firefly.ite28 () Int)
(declare-fun call_firefly.ite19 () Int)
(declare-fun call_firefly.ite34 () Int)
(declare-fun param_e3 () Bool)
(declare-fun call_firefly.ite35 () Int)
(declare-fun call_firefly.ite11 () Int)
(declare-fun call_firefly.flby3 () Int)
(declare-fun call_firefly.ite6 () Int)
(declare-fun call_firefly.ite23 () Int)
(declare-fun call_Sofar.flby () Bool)
(declare-fun call_Sofar.Sofar () Bool)
(declare-fun call_firefly.ite12 () Int)
(declare-fun flby () Bool)
(declare-fun param_e8 () Bool)
(declare-fun call_firefly.flby4 () Int)
(declare-fun call_firefly.ite37 () Int)
(declare-fun call_firefly.ite38 () Int)
(declare-fun call_firefly.shared () Int)
(declare-fun _OK_ () Bool)
(declare-fun call_firefly.ite25 () Int)
(declare-fun call_firefly.ite32 () Int)
(declare-fun call_firefly.flby () Int)
(declare-fun call_firefly.ite39 () Int)
(declare-fun call_firefly.garde8 () Bool)
(declare-fun call_firefly.dirty () Int)
(declare-fun call_firefly.mem_invalid () Int)
(declare-fun dirty () Int)
(declare-fun call_firefly.ite17 () Int)
(declare-fun call_firefly.ite27 () Int)
(declare-fun call_firefly.ite7 () Int)
(declare-fun call_firefly.ite18 () Int)
(declare-fun call_firefly.ite21 () Int)
(declare-fun call_firefly.ite36 () Int)
(declare-fun call_firefly.invalid () Int)
(declare-fun call_firefly.ite26 () Int)
(declare-fun call_firefly.flby2 () Int)
(declare-fun call_firefly.ite2 () Int)
(declare-fun call_firefly.ite13 () Int)
(declare-fun call_firefly.garde6 () Bool)
(declare-fun call_firefly.ite33 () Int)
(declare-fun call_firefly.exclusive () Int)
(declare-fun call_firefly.ite29 () Int)
(declare-fun call_firefly.ite8 () Int)
(declare-fun call_firefly.ite24 () Int)
(declare-fun call_firefly.ite () Int)
(declare-fun shared () Int)
(declare-fun call_firefly.ite20 () Int)
(declare-fun call_firefly.ite9 () Int)
(declare-fun call_firefly.ite22 () Int)
(declare-fun exclusive () Int)
(declare-fun param_e5 () Bool)
(define-fun .def_1112 () Bool (= call_Sofar.flby call_Sofar.Sofar))
(define-fun .def_922 () Bool (not param_e1))
(define-fun .def_895 () Bool (not param_e2))
(define-fun .def_1060 () Bool (and .def_895 .def_922))
(define-fun .def_941 () Bool (not param_e3))
(define-fun .def_1061 () Bool (and .def_941 .def_1060))
(define-fun .def_966 () Bool (not param_e4))
(define-fun .def_1062 () Bool (and .def_966 .def_1061))
(define-fun .def_983 () Bool (not param_e5))
(define-fun .def_1063 () Bool (and .def_983 .def_1062))
(define-fun .def_1001 () Bool (not param_e6))
(define-fun .def_1064 () Bool (and .def_1001 .def_1063))
(define-fun .def_827 () Bool (not param_e7))
(define-fun .def_1065 () Bool (and .def_827 .def_1064))
(define-fun .def_835 () Bool (not param_e8))
(define-fun .def_1101 () Bool (and .def_835 .def_1065))
(define-fun .def_1094 () Bool (and .def_895 param_e1))
(define-fun .def_1095 () Bool (and .def_941 .def_1094))
(define-fun .def_1096 () Bool (and .def_966 .def_1095))
(define-fun .def_1097 () Bool (and .def_983 .def_1096))
(define-fun .def_1098 () Bool (and .def_1001 .def_1097))
(define-fun .def_1099 () Bool (and .def_827 .def_1098))
(define-fun .def_1100 () Bool (and .def_835 .def_1099))
(define-fun .def_1102 () Bool (or .def_1100 .def_1101))
(define-fun .def_1087 () Bool (and param_e2 .def_922))
(define-fun .def_1088 () Bool (and .def_941 .def_1087))
(define-fun .def_1089 () Bool (and .def_966 .def_1088))
(define-fun .def_1090 () Bool (and .def_983 .def_1089))
(define-fun .def_1091 () Bool (and .def_1001 .def_1090))
(define-fun .def_1092 () Bool (and .def_827 .def_1091))
(define-fun .def_1093 () Bool (and .def_835 .def_1092))
(define-fun .def_1103 () Bool (or .def_1093 .def_1102))
(define-fun .def_1081 () Bool (and param_e3 .def_1060))
(define-fun .def_1082 () Bool (and .def_966 .def_1081))
(define-fun .def_1083 () Bool (and .def_983 .def_1082))
(define-fun .def_1084 () Bool (and .def_1001 .def_1083))
(define-fun .def_1085 () Bool (and .def_827 .def_1084))
(define-fun .def_1086 () Bool (and .def_835 .def_1085))
(define-fun .def_1104 () Bool (or .def_1086 .def_1103))
(define-fun .def_1076 () Bool (and param_e4 .def_1061))
(define-fun .def_1077 () Bool (and .def_983 .def_1076))
(define-fun .def_1078 () Bool (and .def_1001 .def_1077))
(define-fun .def_1079 () Bool (and .def_827 .def_1078))
(define-fun .def_1080 () Bool (and .def_835 .def_1079))
(define-fun .def_1105 () Bool (or .def_1080 .def_1104))
(define-fun .def_1072 () Bool (and param_e5 .def_1062))
(define-fun .def_1073 () Bool (and .def_1001 .def_1072))
(define-fun .def_1074 () Bool (and .def_827 .def_1073))
(define-fun .def_1075 () Bool (and .def_835 .def_1074))
(define-fun .def_1106 () Bool (or .def_1075 .def_1105))
(define-fun .def_1069 () Bool (and param_e6 .def_1063))
(define-fun .def_1070 () Bool (and .def_827 .def_1069))
(define-fun .def_1071 () Bool (and .def_835 .def_1070))
(define-fun .def_1107 () Bool (or .def_1071 .def_1106))
(define-fun .def_1067 () Bool (and param_e7 .def_1064))
(define-fun .def_1068 () Bool (and .def_835 .def_1067))
(define-fun .def_1108 () Bool (or .def_1068 .def_1107))
(define-fun .def_1066 () Bool (and param_e8 .def_1065))
(define-fun .def_1109 () Bool (or .def_1066 .def_1108))
(define-fun .def_1110 () Bool (= call_excludes8.excludes .def_1109))
(define-fun .def_1058 () Bool (= call_firefly.flby call_firefly.mem_invalid))
(define-fun .def_1056 () Bool (= call_firefly.flby5 call_firefly.shared))
(define-fun .def_1054 () Bool (= call_firefly.flby4 call_firefly.exclusive))
(define-fun .def_1052 () Bool (= call_firefly.flby3 call_firefly.dirty))
(define-fun .def_1050 () Bool (= call_firefly.flby2 call_firefly.invalid))
(define-fun .def_1048 () Bool (= env call_Sofar.Sofar))
(define-fun .def_1045 () Bool (= shared call_firefly.shared))
(define-fun .def_1041 () Bool (= exclusive call_firefly.exclusive))
(define-fun .def_1037 () Bool (= dirty call_firefly.dirty))
(define-fun .def_1033 () Bool (= invalid call_firefly.invalid))
(define-fun .def_1027 () Bool (not env))
(define-fun .def_1028 () Bool (or flby .def_1027))
(define-fun .def_1029 () Bool (= _OK_ .def_1028))
(define-fun .def_1021 () Bool (= call_firefly.ite36 call_firefly.ite37))
(define-fun .def_1022 () Bool (or param_e7 .def_1021))
(define-fun .def_1018 () Bool (= call_firefly.ite37 call_firefly.ite34))
(define-fun .def_1019 () Bool (or .def_827 .def_1018))
(define-fun .def_1014 () Bool (= call_firefly.ite8 call_firefly.ite5))
(define-fun .def_1015 () Bool (or .def_827 .def_1014))
(define-fun .def_1011 () Bool (= call_firefly.ite7 call_firefly.ite8))
(define-fun .def_1012 () Bool (or param_e7 .def_1011))
(define-fun .def_1016 () Bool (and .def_1012 .def_1015))
(define-fun .def_1020 () Bool (and .def_1016 .def_1019))
(define-fun .def_1023 () Bool (and .def_1020 .def_1022))
(define-fun .def_1007 () Bool (= call_firefly.ite17 call_firefly.ite18))
(define-fun .def_1008 () Bool (or param_e6 .def_1007))
(define-fun .def_1004 () Bool (= call_firefly.ite15 call_firefly.ite18))
(define-fun .def_1005 () Bool (or .def_1001 .def_1004))
(define-fun .def_1000 () Bool (= call_firefly.ite9 call_firefly.ite4))
(define-fun .def_1002 () Bool (or .def_1000 .def_1001))
(define-fun .def_996 () Bool (= call_firefly.ite9 call_firefly.ite8))
(define-fun .def_998 () Bool (or .def_996 param_e6))
(define-fun .def_1003 () Bool (and .def_998 .def_1002))
(define-fun .def_1006 () Bool (and .def_1003 .def_1005))
(define-fun .def_1009 () Bool (and .def_1006 .def_1008))
(define-fun .def_991 () Bool (= call_firefly.ite38 call_firefly.ite37))
(define-fun .def_992 () Bool (or param_e5 .def_991))
(define-fun .def_987 () Bool (= call_firefly.ite38 call_firefly.ite33))
(define-fun .def_988 () Bool (or .def_983 .def_987))
(define-fun .def_982 () Bool (= call_firefly.ite27 call_firefly.ite24))
(define-fun .def_984 () Bool (or .def_982 .def_983))
(define-fun .def_978 () Bool (= call_firefly.ite26 call_firefly.ite27))
(define-fun .def_980 () Bool (or .def_978 param_e5))
(define-fun .def_985 () Bool (and .def_980 .def_984))
(define-fun .def_989 () Bool (and .def_985 .def_988))
(define-fun .def_993 () Bool (and .def_989 .def_992))
(define-fun .def_974 () Bool (= call_firefly.ite28 call_firefly.ite27))
(define-fun .def_975 () Bool (or param_e4 .def_974))
(define-fun .def_970 () Bool (= call_firefly.ite28 call_firefly.ite23))
(define-fun .def_971 () Bool (or .def_966 .def_970))
(define-fun .def_965 () Bool (= call_firefly.ite19 call_firefly.ite14))
(define-fun .def_967 () Bool (or .def_965 .def_966))
(define-fun .def_961 () Bool (= call_firefly.ite19 call_firefly.ite18))
(define-fun .def_963 () Bool (or .def_961 param_e4))
(define-fun .def_968 () Bool (and .def_963 .def_967))
(define-fun .def_972 () Bool (and .def_968 .def_971))
(define-fun .def_976 () Bool (and .def_972 .def_975))
(define-fun .def_956 () Bool (= call_firefly.ite39 call_firefly.ite38))
(define-fun .def_957 () Bool (or param_e3 .def_956))
(define-fun .def_952 () Bool (= call_firefly.ite39 call_firefly.ite32))
(define-fun .def_953 () Bool (or .def_941 .def_952))
(define-fun .def_948 () Bool (= call_firefly.ite29 call_firefly.ite28))
(define-fun .def_949 () Bool (or param_e3 .def_948))
(define-fun .def_944 () Bool (= call_firefly.ite22 call_firefly.ite29))
(define-fun .def_945 () Bool (or .def_941 .def_944))
(define-fun .def_940 () Bool (= call_firefly.ite10 call_firefly.ite3))
(define-fun .def_942 () Bool (or .def_940 .def_941))
(define-fun .def_936 () Bool (= call_firefly.ite10 call_firefly.ite9))
(define-fun .def_938 () Bool (or .def_936 param_e3))
(define-fun .def_943 () Bool (and .def_938 .def_942))
(define-fun .def_946 () Bool (and .def_943 .def_945))
(define-fun .def_950 () Bool (and .def_946 .def_949))
(define-fun .def_954 () Bool (and .def_950 .def_953))
(define-fun .def_958 () Bool (and .def_954 .def_957))
(define-fun .def_931 () Bool (= call_firefly.ite30 call_firefly.ite29))
(define-fun .def_932 () Bool (or param_e1 .def_931))
(define-fun .def_927 () Bool (= call_firefly.ite21 call_firefly.ite30))
(define-fun .def_928 () Bool (or .def_922 .def_927))
(define-fun .def_921 () Bool (= call_firefly.ite12 call_firefly.ite))
(define-fun .def_923 () Bool (or .def_921 .def_922))
(define-fun .def_917 () Bool (= call_firefly.ite11 call_firefly.ite12))
(define-fun .def_919 () Bool (or .def_917 param_e1))
(define-fun .def_924 () Bool (and .def_919 .def_923))
(define-fun .def_929 () Bool (and .def_924 .def_928))
(define-fun .def_933 () Bool (and .def_929 .def_932))
(define-fun .def_913 () Bool (= call_firefly.ite40 call_firefly.ite39))
(define-fun .def_914 () Bool (or param_e2 .def_913))
(define-fun .def_909 () Bool (= call_firefly.ite31 call_firefly.ite40))
(define-fun .def_910 () Bool (or .def_895 .def_909))
(define-fun .def_904 () Bool (= call_firefly.ite20 call_firefly.ite19))
(define-fun .def_905 () Bool (or param_e2 .def_904))
(define-fun .def_900 () Bool (= call_firefly.ite13 call_firefly.ite20))
(define-fun .def_901 () Bool (or .def_895 .def_900))
(define-fun .def_894 () Bool (= call_firefly.ite11 call_firefly.ite2))
(define-fun .def_896 () Bool (or .def_894 .def_895))
(define-fun .def_890 () Bool (= call_firefly.ite11 call_firefly.ite10))
(define-fun .def_892 () Bool (or .def_890 param_e2))
(define-fun .def_897 () Bool (and .def_892 .def_896))
(define-fun .def_902 () Bool (and .def_897 .def_901))
(define-fun .def_906 () Bool (and .def_902 .def_905))
(define-fun .def_911 () Bool (and .def_906 .def_910))
(define-fun .def_915 () Bool (and .def_911 .def_914))
(define-fun .def_934 () Bool (and .def_915 .def_933))
(define-fun .def_959 () Bool (and .def_934 .def_958))
(define-fun .def_977 () Bool (and .def_959 .def_976))
(define-fun .def_994 () Bool (and .def_977 .def_993))
(define-fun .def_1010 () Bool (and .def_994 .def_1009))
(define-fun .def_1024 () Bool (and .def_1010 .def_1023))
(define-fun .def_1030 () Bool (and .def_1024 .def_1029))
(define-fun .def_1034 () Bool (and .def_1030 .def_1033))
(define-fun .def_1038 () Bool (and .def_1034 .def_1037))
(define-fun .def_1042 () Bool (and .def_1038 .def_1041))
(define-fun .def_1046 () Bool (and .def_1042 .def_1045))
(define-fun .def_1049 () Bool (and .def_1046 .def_1048))
(define-fun .def_1051 () Bool (and .def_1049 .def_1050))
(define-fun .def_1053 () Bool (and .def_1051 .def_1052))
(define-fun .def_1055 () Bool (and .def_1053 .def_1054))
(define-fun .def_1057 () Bool (and .def_1055 .def_1056))
(define-fun .def_1059 () Bool (and .def_1057 .def_1058))
(define-fun .def_1111 () Bool (and .def_1059 .def_1110))
(define-fun .def_1113 () Bool (and .def_1111 .def_1112))
(define-fun .def_882 () Bool (<= 0 param_i_invalid))
(define-fun .def_884 () Bool (and .def_882 call_excludes8.excludes))
(define-fun .def_886 () Bool (= .def_884 call_Sofar.flby))
(define-fun .def_880 () Bool (= call_firefly.flby5 0))
(define-fun .def_877 () Bool (= call_firefly.flby4 0))
(define-fun .def_874 () Bool (= call_firefly.flby3 0))
(define-fun .def_871 () Bool (= call_firefly.flby2 call_firefly.mem_invalid))
(define-fun .def_867 () Bool (= param_i_invalid call_firefly.flby))
(define-fun .def_862 () Bool (= call_firefly.ite25 0))
(define-fun .def_861 () Bool (not call_firefly.garde8))
(define-fun .def_863 () Bool (or .def_861 .def_862))
(define-fun .def_857 () Bool (= call_firefly.ite15 1))
(define-fun .def_855 () Bool (not call_firefly.garde6))
(define-fun .def_858 () Bool (or .def_855 .def_857))
(define-fun .def_851 () Bool (= call_firefly.ite22 0))
(define-fun .def_849 () Bool (not call_firefly.garde3))
(define-fun .def_852 () Bool (or .def_849 .def_851))
(define-fun .def_844 () Bool (= call_firefly.ite35 call_firefly.ite36))
(define-fun .def_845 () Bool (or .def_835 .def_844))
(define-fun .def_839 () Bool (= call_firefly.ite6 call_firefly.ite7))
(define-fun .def_840 () Bool (or .def_835 .def_839))
(define-fun .def_833 () Bool (= call_firefly.ite25 call_firefly.ite26))
(define-fun .def_836 () Bool (or .def_833 .def_835))
(define-fun .def_841 () Bool (and .def_836 .def_840))
(define-fun .def_846 () Bool (and .def_841 .def_845))
(define-fun .def_825 () Bool (= call_firefly.ite16 call_firefly.ite17))
(define-fun .def_828 () Bool (or .def_825 .def_827))
(define-fun .def_830 () Bool (and .def_828 flby))
(define-fun .def_847 () Bool (and .def_830 .def_846))
(define-fun .def_853 () Bool (and .def_847 .def_852))
(define-fun .def_859 () Bool (and .def_853 .def_858))
(define-fun .def_864 () Bool (and .def_859 .def_863))
(define-fun .def_868 () Bool (and .def_864 .def_867))
(define-fun .def_872 () Bool (and .def_868 .def_871))
(define-fun .def_875 () Bool (and .def_872 .def_874))
(define-fun .def_878 () Bool (and .def_875 .def_877))
(define-fun .def_881 () Bool (and .def_878 .def_880))
(define-fun .def_887 () Bool (and .def_881 .def_886))
(define-fun .def_1114 () Bool (and .def_887 .def_1113))
(assert .def_1114)
